p cnf 144 1
144 0
w 1 0.908254
w 2 1 1
w 2 -1 0
w 3 2 1
w 3 -2 0
w 4 3 0.863187
w 4 -3 0.459756
w 5 4 0
w 5 -4 1
w 6 5 1
w 6 -5 0
w 7 6 0.314164
w 7 -6 0.224557
w 8 7 0.737739
w 8 -7 0.710908
w 9 8 1
w 9 -8 0
w 10 9 0.373768
w 10 -9 0.193982
w 11 10 1
w 11 -10 0
w 12 11 0.607558
w 12 -11 0.239441
w 13 1 0.0273684
w 13 -1 0.632232
w 14 13 2 0.274318
w 14 13 -2 0.649839
w 14 -13 2 0.667569
w 14 -13 -2 0.655551
w 15 14 3 1
w 15 14 -3 0
w 15 -14 3 0
w 15 -14 -3 1
w 16 15 4 1
w 16 15 -4 1
w 16 -15 4 0
w 16 -15 -4 1
w 17 16 5 1
w 17 16 -5 0
w 17 -16 5 1
w 17 -16 -5 0
w 18 17 6 0.396796
w 18 17 -6 0.0367652
w 18 -17 6 0.937537
w 18 -17 -6 0.187425
w 19 18 7 0.545095
w 19 18 -7 0.426866
w 19 -18 7 0.38065
w 19 -18 -7 0.572464
w 20 19 8 0
w 20 19 -8 1
w 20 -19 8 0
w 20 -19 -8 0
w 21 20 9 0.912803
w 21 20 -9 0.0829763
w 21 -20 9 0.617639
w 21 -20 -9 0.522615
w 22 21 10 0.108653
w 22 21 -10 0.227403
w 22 -21 10 0.836614
w 22 -21 -10 0.913832
w 23 22 11 0
w 23 22 -11 1
w 23 -22 11 1
w 23 -22 -11 0
w 24 23 12 1
w 24 23 -12 1
w 24 -23 12 0
w 24 -23 -12 1
w 25 13 1
w 25 -13 0
w 26 25 14 0.890865
w 26 25 -14 0.501851
w 26 -25 14 0.362636
w 26 -25 -14 0.949964
w 27 26 15 0
w 27 26 -15 0
w 27 -26 15 0
w 27 -26 -15 1
w 28 27 16 1
w 28 27 -16 0
w 28 -27 16 0
w 28 -27 -16 0
w 29 28 17 0
w 29 28 -17 0
w 29 -28 17 1
w 29 -28 -17 1
w 30 29 18 0.275472
w 30 29 -18 0.261227
w 30 -29 18 0.108157
w 30 -29 -18 0.583012
w 31 30 19 0.444455
w 31 30 -19 0.828089
w 31 -30 19 0.00180014
w 31 -30 -19 0.565656
w 32 31 20 0.892666
w 32 31 -20 0.0675061
w 32 -31 20 0.980897
w 32 -31 -20 0.84263
w 33 32 21 0
w 33 32 -21 1
w 33 -32 21 1
w 33 -32 -21 1
w 34 33 22 1
w 34 33 -22 0
w 34 -33 22 0
w 34 -33 -22 1
w 35 34 23 0.489278
w 35 34 -23 0.627215
w 35 -34 23 0.0213655
w 35 -34 -23 0.967748
w 36 35 24 1
w 36 35 -24 1
w 36 -35 24 0
w 36 -35 -24 0
w 37 25 0.807692
w 37 -25 0.382601
w 38 37 26 0.809492
w 38 37 -26 0.948257
w 38 -37 26 0.272582
w 38 -37 -26 0.702157
w 39 38 27 0
w 39 38 -27 1
w 39 -38 27 0
w 39 -38 -27 0
w 40 39 28 1
w 40 39 -28 1
w 40 -39 28 0
w 40 -39 -28 0
w 41 40 29 0.287108
w 41 40 -29 0.379455
w 41 -40 29 0.2468
w 41 -40 -29 0.776386
w 42 41 30 0
w 42 41 -30 1
w 42 -41 30 1
w 42 -41 -30 0
w 43 42 31 0.285224
w 43 42 -31 0.0363011
w 43 -42 31 0.813587
w 43 -42 -31 0.0929162
w 44 43 32 1
w 44 43 -32 1
w 44 -43 32 0
w 44 -43 -32 1
w 45 44 33 0.382922
w 45 44 -33 0.993969
w 45 -44 33 0.149352
w 45 -44 -33 0.852694
w 46 45 34 1
w 46 45 -34 0
w 46 -45 34 1
w 46 -45 -34 0
w 47 46 35 0.360928
w 47 46 -35 0.602331
w 47 -46 35 0.371593
w 47 -46 -35 0.607728
w 48 47 36 0
w 48 47 -36 1
w 48 -47 36 0
w 48 -47 -36 1
w 49 37 0.110205
w 49 -37 0.678821
w 50 49 38 1
w 50 49 -38 0
w 50 -49 38 0
w 50 -49 -38 1
w 51 50 39 0.796412
w 51 50 -39 0.13219
w 51 -50 39 0.278711
w 51 -50 -39 0.179334
w 52 51 40 1
w 52 51 -40 1
w 52 -51 40 0
w 52 -51 -40 1
w 53 52 41 0.347542
w 53 52 -41 0.938956
w 53 -52 41 0.739365
w 53 -52 -41 0.70847
w 54 53 42 0.110958
w 54 53 -42 0.316198
w 54 -53 42 0.920003
w 54 -53 -42 0.489221
w 55 54 43 1
w 55 54 -43 0
w 55 -54 43 0
w 55 -54 -43 0
w 56 55 44 0.176492
w 56 55 -44 0.0768502
w 56 -55 44 0.333376
w 56 -55 -44 0.605745
w 57 56 45 0
w 57 56 -45 1
w 57 -56 45 1
w 57 -56 -45 0
w 58 57 46 0.726899
w 58 57 -46 0.714295
w 58 -57 46 0.613519
w 58 -57 -46 0.290821
w 59 58 47 1
w 59 58 -47 1
w 59 -58 47 0
w 59 -58 -47 1
w 60 59 48 1
w 60 59 -48 1
w 60 -59 48 1
w 60 -59 -48 0
w 61 49 0.855124
w 61 -49 0.781127
w 62 61 50 0.0212652
w 62 61 -50 0.934186
w 62 -61 50 0.144747
w 62 -61 -50 0.197757
w 63 62 51 1
w 63 62 -51 1
w 63 -62 51 0
w 63 -62 -51 1
w 64 63 52 0
w 64 63 -52 1
w 64 -63 52 0
w 64 -63 -52 1
w 65 64 53 1
w 65 64 -53 1
w 65 -64 53 0
w 65 -64 -53 0
w 66 65 54 0.101182
w 66 65 -54 0.861528
w 66 -65 54 0.0832425
w 66 -65 -54 0.919452
w 67 66 55 0
w 67 66 -55 0
w 67 -66 55 1
w 67 -66 -55 0
w 68 67 56 0
w 68 67 -56 1
w 68 -67 56 0
w 68 -67 -56 0
w 69 68 57 0.384075
w 69 68 -57 0.978867
w 69 -68 57 0.623922
w 69 -68 -57 0.863661
w 70 69 58 1
w 70 69 -58 0
w 70 -69 58 0
w 70 -69 -58 0
w 71 70 59 0.017398
w 71 70 -59 0.849258
w 71 -70 59 0.546754
w 71 -70 -59 0.778814
w 72 71 60 0.647935
w 72 71 -60 0.640342
w 72 -71 60 0.668909
w 72 -71 -60 0.567388
w 73 61 0.415183
w 73 -61 0.225113
w 74 73 62 1
w 74 73 -62 1
w 74 -73 62 1
w 74 -73 -62 0
w 75 74 63 1
w 75 74 -63 0
w 75 -74 63 0
w 75 -74 -63 1
w 76 75 64 0
w 76 75 -64 1
w 76 -75 64 1
w 76 -75 -64 1
w 77 76 65 0
w 77 76 -65 1
w 77 -76 65 1
w 77 -76 -65 1
w 78 77 66 0
w 78 77 -66 1
w 78 -77 66 1
w 78 -77 -66 0
w 79 78 67 0
w 79 78 -67 1
w 79 -78 67 0
w 79 -78 -67 0
w 80 79 68 0
w 80 79 -68 0
w 80 -79 68 1
w 80 -79 -68 0
w 81 80 69 0
w 81 80 -69 0
w 81 -80 69 1
w 81 -80 -69 1
w 82 81 70 0
w 82 81 -70 0
w 82 -81 70 1
w 82 -81 -70 0
w 83 82 71 0
w 83 82 -71 1
w 83 -82 71 1
w 83 -82 -71 0
w 84 83 72 0.0144862
w 84 83 -72 0.591607
w 84 -83 72 0.455458
w 84 -83 -72 0.980934
w 85 73 0.962426
w 85 -73 0.660322
w 86 85 74 0
w 86 85 -74 1
w 86 -85 74 1
w 86 -85 -74 0
w 87 86 75 0.844657
w 87 86 -75 0.52361
w 87 -86 75 0.1822
w 87 -86 -75 0.459101
w 88 87 76 1
w 88 87 -76 1
w 88 -87 76 0
w 88 -87 -76 1
w 89 88 77 0.884227
w 89 88 -77 0.7896
w 89 -88 77 0.909412
w 89 -88 -77 0.231773
w 90 89 78 0
w 90 89 -78 1
w 90 -89 78 0
w 90 -89 -78 1
w 91 90 79 0
w 91 90 -79 0
w 91 -90 79 1
w 91 -90 -79 1
w 92 91 80 1
w 92 91 -80 1
w 92 -91 80 1
w 92 -91 -80 0
w 93 92 81 0.911657
w 93 92 -81 0.384375
w 93 -92 81 0.256266
w 93 -92 -81 0.0938564
w 94 93 82 0.63401
w 94 93 -82 0.947111
w 94 -93 82 0.00060602
w 94 -93 -82 0.150632
w 95 94 83 0
w 95 94 -83 0
w 95 -94 83 1
w 95 -94 -83 1
w 96 95 84 0
w 96 95 -84 1
w 96 -95 84 1
w 96 -95 -84 0
w 97 85 0.675272
w 97 -85 0.575678
w 98 97 86 1
w 98 97 -86 0
w 98 -97 86 0
w 98 -97 -86 0
w 99 98 87 1
w 99 98 -87 1
w 99 -98 87 1
w 99 -98 -87 0
w 100 99 88 0
w 100 99 -88 0
w 100 -99 88 0
w 100 -99 -88 1
w 101 100 89 0.938936
w 101 100 -89 0.024225
w 101 -100 89 0.737724
w 101 -100 -89 0.973795
w 102 101 90 0
w 102 101 -90 0
w 102 -101 90 0
w 102 -101 -90 1
w 103 102 91 0.722509
w 103 102 -91 0.580609
w 103 -102 91 0.590848
w 103 -102 -91 0.298188
w 104 103 92 1
w 104 103 -92 1
w 104 -103 92 1
w 104 -103 -92 0
w 105 104 93 0.61162
w 105 104 -93 0.88258
w 105 -104 93 0.884857
w 105 -104 -93 0.337507
w 106 105 94 0
w 106 105 -94 0
w 106 -105 94 1
w 106 -105 -94 0
w 107 106 95 0.944275
w 107 106 -95 0.766389
w 107 -106 95 0.94833
w 107 -106 -95 0.681999
w 108 107 96 0.0195254
w 108 107 -96 0.0980642
w 108 -107 96 0.980612
w 108 -107 -96 0.151523
w 109 97 0.896189
w 109 -97 0.874032
w 110 109 98 1
w 110 109 -98 1
w 110 -109 98 0
w 110 -109 -98 0
w 111 110 99 0.230494
w 111 110 -99 0.570905
w 111 -110 99 0.980509
w 111 -110 -99 0.842114
w 112 111 100 0
w 112 111 -100 1
w 112 -111 100 0
w 112 -111 -100 0
w 113 112 101 1
w 113 112 -101 1
w 113 -112 101 0
w 113 -112 -101 1
w 114 113 102 0
w 114 113 -102 1
w 114 -113 102 0
w 114 -113 -102 0
w 115 114 103 1
w 115 114 -103 1
w 115 -114 103 0
w 115 -114 -103 1
w 116 115 104 1
w 116 115 -104 1
w 116 -115 104 0
w 116 -115 -104 1
w 117 116 105 1
w 117 116 -105 0
w 117 -116 105 0
w 117 -116 -105 0
w 118 117 106 0
w 118 117 -106 1
w 118 -117 106 1
w 118 -117 -106 0
w 119 118 107 0
w 119 118 -107 1
w 119 -118 107 0
w 119 -118 -107 1
w 120 119 108 0
w 120 119 -108 1
w 120 -119 108 1
w 120 -119 -108 1
w 121 109 0.858703
w 121 -109 0.423406
w 122 121 110 0.974048
w 122 121 -110 0.677793
w 122 -121 110 0.828726
w 122 -121 -110 0.57643
w 123 122 111 1
w 123 122 -111 0
w 123 -122 111 1
w 123 -122 -111 0
w 124 123 112 1
w 124 123 -112 1
w 124 -123 112 0
w 124 -123 -112 1
w 125 124 113 1
w 125 124 -113 1
w 125 -124 113 1
w 125 -124 -113 0
w 126 125 114 1
w 126 125 -114 1
w 126 -125 114 0
w 126 -125 -114 0
w 127 126 115 1
w 127 126 -115 0
w 127 -126 115 1
w 127 -126 -115 1
w 128 127 116 0.138266
w 128 127 -116 0.31072
w 128 -127 116 0.353944
w 128 -127 -116 0.714696
w 129 128 117 0
w 129 128 -117 0
w 129 -128 117 1
w 129 -128 -117 0
w 130 129 118 0.865286
w 130 129 -118 0.902733
w 130 -129 118 0.796452
w 130 -129 -118 0.056926
w 131 130 119 0
w 131 130 -119 1
w 131 -130 119 1
w 131 -130 -119 0
w 132 131 120 0.405721
w 132 131 -120 0.377618
w 132 -131 120 0.350173
w 132 -131 -120 0.572191
w 133 121 0.655688
w 133 -121 0.781712
w 134 133 122 0.819906
w 134 133 -122 0.414639
w 134 -133 122 0.383148
w 134 -133 -122 0.958173
w 135 134 123 0.737092
w 135 134 -123 0.672869
w 135 -134 123 0.14048
w 135 -134 -123 0.674597
w 136 135 124 0.0802859
w 136 135 -124 0.180994
w 136 -135 124 0.526632
w 136 -135 -124 0.945572
w 137 136 125 1
w 137 136 -125 0
w 137 -136 125 0
w 137 -136 -125 0
w 138 137 126 1
w 138 137 -126 0
w 138 -137 126 1
w 138 -137 -126 1
w 139 138 127 0.456119
w 139 138 -127 0.421242
w 139 -138 127 0.428999
w 139 -138 -127 0.111807
w 140 139 128 0
w 140 139 -128 0
w 140 -139 128 0
w 140 -139 -128 1
w 141 140 129 0.342952
w 141 140 -129 0.407167
w 141 -140 129 0.562754
w 141 -140 -129 0.483432
w 142 141 130 0
w 142 141 -130 1
w 142 -141 130 0
w 142 -141 -130 0
w 143 142 131 0
w 143 142 -131 0
w 143 -142 131 0
w 143 -142 -131 1
w 144 143 132 0
w 144 143 -132 1
w 144 -143 132 0
w 144 -143 -132 1